Route #1: 0 4 27 34 35 7 0
Route #2: 0 46 8 19 45 48 0
Route #3: 0 30 21 47 37 29 0
Route #4: 0 2 6 3 24 44 0
Route #5: 0 12 9 40 17 0
Route #6: 0 32 39 31 10 0
Route #7: 0 25 18 16 1 33 0
Route #8: 0 49 23 43 41 42 22 28 0
Route #9: 0 5 36 20 15 13 26 0
Route #10: 0 38 11 14 0
Cost 815:
